NAME: random-75-8622
TYPE: TSP
COMMENT: size=75 seed=8622
DIMENSION: 152
EDGE_WEIGHT_TYPE: EUC_2D
NODE_COORD_SECTION
+0 954 180
-0 954 180
+1 789 295
-1 333 225
+2 274 472
-2 698 364
+3 916 318
-3 294 17
+4 852 736
-4 145 992
+5 913 231
-5 532 420
+6 455 5
-6 154 130
+7 410 255
-7 678 335
+8 950 451
-8 958 716
+9 200 591
-9 170 259
+10 11 247
-10 636 727
+11 471 368
-11 901 933
+12 571 40
-12 246 173
+13 26 778
-13 737 335
+14 610 779
-14 827 932
+15 131 449
-15 681 678
+16 840 993
-16 476 822
+17 179 481
-17 257 318
+18 934 20
-18 181 720
+19 75 535
-19 795 38
+20 891 708
-20 246 677
+21 132 21
-21 801 950
+22 323 689
-22 466 779
+23 288 629
-23 632 834
+24 208 629
-24 102 661
+25 718 936
-25 790 577
+26 939 260
-26 148 186
+27 492 129
-27 459 885
+28 83 537
-28 581 136
+29 405 580
-29 282 36
+30 472 5
-30 293 892
+31 233 456
-31 644 664
+32 59 525
-32 315 596
+33 492 466
-33 152 388
+34 14 880
-34 248 792
+35 691 543
-35 671 235
+36 886 352
-36 446 448
+37 439 215
-37 584 914
+38 448 284
-38 844 731
+39 234 815
-39 637 544
+40 514 503
-40 354 396
+41 168 690
-41 821 40
+42 309 709
-42 815 576
+43 68 530
-43 4 577
+44 993 790
-44 962 559
+45 59 321
-45 6 554
+46 788 285
-46 739 578
+47 574 206
-47 807 882
+48 298 427
-48 898 853
+49 430 457
-49 149 374
+50 588 552
-50 179 796
+51 91 312
-51 851 81
+52 641 791
-52 82 855
+53 432 343
-53 146 252
+54 335 617
-54 777 642
+55 937 574
-55 772 58
+56 377 953
-56 496 522
+57 992 981
-57 529 889
+58 685 648
-58 956 848
+59 28 615
-59 912 579
+60 760 233
-60 753 494
+61 230 763
-61 214 548
+62 786 724
-62 733 307
+63 27 797
-63 25 231
+64 318 733
-64 739 191
+65 154 235
-65 293 472
+66 49 790
-66 167 593
+67 808 246
-67 951 207
+68 833 545
-68 159 478
+69 450 462
-69 726 796
+70 288 505
-70 97 115
+71 200 633
-71 384 926
+72 9 103
-72 124 965
+73 467 27
-73 976 782
+74 329 900
-74 710 228
+75 25 651
-75 376 385
PRECEDENCE_SECTION
+0 -0
+1 -1
+2 -2
+3 -3
+4 -4
+5 -5
+6 -6
+7 -7
+8 -8
+9 -9
+10 -10
+11 -11
+12 -12
+13 -13
+14 -14
+15 -15
+16 -16
+17 -17
+18 -18
+19 -19
+20 -20
+21 -21
+22 -22
+23 -23
+24 -24
+25 -25
+26 -26
+27 -27
+28 -28
+29 -29
+30 -30
+31 -31
+32 -32
+33 -33
+34 -34
+35 -35
+36 -36
+37 -37
+38 -38
+39 -39
+40 -40
+41 -41
+42 -42
+43 -43
+44 -44
+45 -45
+46 -46
+47 -47
+48 -48
+49 -49
+50 -50
+51 -51
+52 -52
+53 -53
+54 -54
+55 -55
+56 -56
+57 -57
+58 -58
+59 -59
+60 -60
+61 -61
+62 -62
+63 -63
+64 -64
+65 -65
+66 -66
+67 -67
+68 -68
+69 -69
+70 -70
+71 -71
+72 -72
+73 -73
+74 -74
+75 -75
EOF
